
630.0
630.0
630.0
630.0
630.0
630.0
630.0
630.0
930.0
630.0
870.0
630.0
630.0
630.0
630.0
630.0
630.0
630.0
630.0
630.0
630.0
630.0
630.0
630.0
630.0
630.0
630.0
1230.0
630.0
630.0
630.0
630.0
630.0
630.0
630.0
630.0
630.0
840.0
1230.0
630.0
630.0
630.0
630.0
630.0
630.0
630.0
630.0
630.0
660.0
630.0